% File represents an instance of a Composite Structure problem to be solved by a CP framework
% Created on 2025-03-26 10:41:33.353
T = 52;
n = 25;
m = 40;
edges = [(2, 1),
(6, 7),
(11, 12),
(17, 16),
(21, 22),
(3, 2),
(8, 7),
(13, 12),
(17, 18),
(22, 23),
(4, 3),
(9, 8),
(14, 13),
(19, 18),
(24, 23),
(4, 5),
(10, 9),
(15, 14),
(20, 19),
(25, 24),
(6, 1),
(11, 6),
(11, 16),
(21, 16),
(2, 7),
(12, 7),
(17, 12),
(17, 22),
(3, 8),
(13, 8),
(13, 18),
(18, 23),
(4, 9),
(14, 9),
(14, 19),
(19, 24),
(10, 5),
(15, 10),
(15, 20),
(25, 20)];
counts = [|16, 2, 16, 4,
|16, 2, 16, 6,
|16, 6, 16, 8,
|16, 6, 16, 10,
|16, 4, 16, 10,
|16, 2, 16, 6,
|16, 2, 16, 4,
|16, 2, 16, 6,
|16, 4, 16, 10,
|18, 4, 18, 10,
|16, 6, 16, 8,
|16, 2, 16, 6,
|18, 2, 18, 6,
|18, 4, 18, 10,
|18, 4, 18, 12,
|16, 4, 16, 6,
|16, 4, 16, 10,
|16, 2, 16, 6,
|16, 4, 16, 8,
|16, 4, 16, 10,
|16, 6, 16, 6,
|16, 4, 16, 4,
|16, 2, 16, 4,
|16, 2, 16, 8,
|16, 4, 16, 12|];
